&SYSTEM
    celldm(4) = -0.5
    celldm(1) = 5.72548821569
    ibrav = 4
    celldm(3) = 2.20818606667
    celldm(2) = 1.0
    nat = 3
    ntyp = 2
/
ATOMIC_SPECIES
 Mg 24.305 mg_6.ncpp
 B 11.0 B.pbe-n-van_ak.UPF
 Al 26.982538 al_1.ncpp
ATOMIC_POSITIONS ALAT
 Al  0.  0.  0. 0 0 0
 B  0.5         0.28867513  0.51939893 0 0 1
 B   3.33357409e-10   5.77350270e-01   5.19398931e-01 0 0 1
 Mg  0.          0.          1.10409303 0 0 0
 B  0.5         0.28867513  1.68878714 0 0 1
 B   3.33357409e-10   5.77350270e-01   1.68878714e+00 0 0 1
