 &control
    calculation='scf'
    restart_mode='from_scratch',
    tprnfor = .true.
    prefix='ni',
    pseudo_dir = './',
    outdir='temp/'
 /
 &system    
    ibrav=1, 
    celldm(1) =10.32348344,
    nat=  5, 
    ntyp= 2,
    degauss=0.02,
    smearing='gauss',
    occupations='smearing',
    ecutwfc =27.0
    ecutrho =300.0
 /
 &electrons
    conv_thr =  1.0d-8
    mixing_beta = 0.7
 /
ATOMIC_SPECIES
Ca 1. Ca.UPF
F 1. F.UPF
ATOMIC_POSITIONS
Ca 0.0 0.0 0.0
Ca 0.0 0.5 0.5
Ca 0.5 0.0 0.5
Ca 0.5 0.5 0.0
F 0.25 0.25 0.25
K_POINTS AUTOMATIC
4 4 4 1 1 1
