&CONTROL
    calculation = 'scf',
    restart_mode = 'from_scratch',
    pseudo_dir = '/home/user/pslib',
    outdir = 'temp/',
    prefix = 'al',
    tprnfor = .true.,
    tstress = .true.,
/
&SYSTEM
    ibrav = 0,
    ecutwfc = 17.5,
    occupations = 'smearing',
    smearing = 'marzari-vanderbilt',
    degauss = 0.05,
    celldm(1) = 1.889725989,
    ntyp = 2,
    nat = 8,
/
&ELECTRONS
    diagonalization = 'david',
    mixing_beta = 0.7,
/
ATOMIC_SPECIES
 Pb2+ 0.0000
 Te  0.0000
ATOMIC_POSITIONS (crystal)
 Pb2+     0.50000000  0.50000000  0.50000000
 Pb2+     0.50000000  0.00000000  0.00000000
 Pb2+     0.00000000  0.50000000  0.00000000
 Pb2+     0.00000000  0.00000000  0.50000000
 Te      0.00000000  0.00000000  0.00000000
 Te      0.00000000  0.50000000  0.50000000
 Te      0.50000000  0.00000000  0.50000000
 Te      0.50000000  0.50000000  0.00000000
K_POINTS
 60
 0.0625000  0.0625000  0.0625000   1.00
 0.0625000  0.0625000  0.1875000   3.00
 0.0625000  0.0625000  0.3125000   3.00
 0.0625000  0.0625000  0.4375000   3.00
 0.0625000  0.0625000  0.5625000   3.00
 0.0625000  0.0625000  0.6875000   3.00
 0.0625000  0.0625000  0.8125000   3.00
 0.0625000  0.0625000  0.9375000   3.00
 0.0625000  0.1875000  0.1875000   3.00
 0.0625000  0.1875000  0.3125000   6.00
 0.0625000  0.1875000  0.4375000   6.00
 0.0625000  0.1875000  0.5625000   6.00
 0.0625000  0.1875000  0.6875000   6.00
 0.0625000  0.1875000  0.8125000   6.00
 0.0625000  0.1875000  0.9375000   6.00
 0.0625000  0.3125000  0.3125000   3.00
 0.0625000  0.3125000  0.4375000   6.00
 0.0625000  0.3125000  0.5625000   6.00
 0.0625000  0.3125000  0.6875000   6.00
 0.0625000  0.3125000  0.8125000   6.00
 0.0625000  0.3125000  0.9375000   6.00
 0.0625000  0.4375000  0.4375000   3.00
 0.0625000  0.4375000  0.5625000   6.00
 0.0625000  0.4375000  0.6875000   6.00
 0.0625000  0.4375000  0.8125000   6.00
 0.0625000  0.4375000  0.9375000   6.00
 0.0625000  0.5625000  0.5625000   3.00
 0.0625000  0.5625000  0.6875000   6.00
 0.0625000  0.5625000  0.8125000   6.00
 0.0625000  0.6875000  0.6875000   3.00
 0.0625000  0.6875000  0.8125000   6.00
 0.0625000  0.8125000  0.8125000   3.00
 0.1875000  0.1875000  0.1875000   1.00
 0.1875000  0.1875000  0.3125000   3.00
 0.1875000  0.1875000  0.4375000   3.00
 0.1875000  0.1875000  0.5625000   3.00
 0.1875000  0.1875000  0.6875000   3.00
 0.1875000  0.1875000  0.8125000   3.00
 0.1875000  0.3125000  0.3125000   3.00
 0.1875000  0.3125000  0.4375000   6.00
 0.1875000  0.3125000  0.5625000   6.00
 0.1875000  0.3125000  0.6875000   6.00
 0.1875000  0.3125000  0.8125000   6.00
 0.1875000  0.4375000  0.4375000   3.00
 0.1875000  0.4375000  0.5625000   6.00
 0.1875000  0.4375000  0.6875000   6.00
 0.1875000  0.4375000  0.8125000   6.00
 0.1875000  0.5625000  0.5625000   3.00
 0.1875000  0.5625000  0.6875000   6.00
 0.1875000  0.6875000  0.6875000   3.00
 0.3125000  0.3125000  0.3125000   1.00
 0.3125000  0.3125000  0.4375000   3.00
 0.3125000  0.3125000  0.5625000   3.00
 0.3125000  0.3125000  0.6875000   3.00
 0.3125000  0.4375000  0.4375000   3.00
 0.3125000  0.4375000  0.5625000   6.00
 0.3125000  0.4375000  0.6875000   6.00
 0.3125000  0.5625000  0.5625000   3.00
 0.4375000  0.4375000  0.4375000   1.00
 0.4375000  0.4375000  0.5625000   3.00
CELL_PARAMETERS (cubic)
 6.46100000  0.00000000  0.00000000
 0.00000000  6.46100000  0.00000000
 0.00000000  0.00000000  6.46100000
