phonons of AlMgB4
 &inputph
  tr2_ph=1.0d-14,
  prefix='almgb4',
  recover = .true.,
  ldisp=.true.,
  nq1=4,
  nq2=4,
  nq3=4,
  amass(1)=26.982538,
  amass(2)=11.000,
  amass(3)=24.305,
  outdir='/scratch/almgb4'
  fildyn='almgb4.444.dyn',
 /

