 &input
   fildyn='almgb4.444.dyn',
   zasr='simple',
   flfrc='almgb4444.fc'
 /
 
