&CONTROL
    calculation = 'scf'
!    verbosity = 'high'
    pseudo_dir = './'
    tprnfor = .true.
    prefix = 'almgb4'
    lkpoint_dir = .false.
    restart_mode = 'from_scratch'
    outdir = 'temp/'
!    tstress = .true.
/
&SYSTEM
    nbnd = 21
    nspin = 1
    ecutwfc = 32.0
    occupations = 'smearing'
    celldm(1) = 5.72548821569
    ibrav = 4
    celldm(3) = 2.20818606667
    degauss = 0.025
    smearing = 'methfessel-paxton'
    nat = 6
    ntyp = 3
    ecutrho = 256.0
/
&ELECTRONS
    mixing_beta = 0.7
    conv_thr = 1.0d-13
/
ATOMIC_SPECIES
 Al  26.982538 al_1.ncpp
 B   11.000    B.pbe-n-van_ak.UPF
 Mg  24.305    mg_6.ncpp
ATOMIC_POSITIONS ALAT
 Al       0.000000000   0.0000000000000000   0.0000000000
 B        0.500000000   0.2886751345948129   0.51939893
 B        0.000000000   0.5773502691896257   0.51939893
 Mg       0.000000000   0.0000000000000000   1.10409303
 B        0.500000000   0.2886751345948129   1.68878714
 B        0.000000000   0.5773502691896257   1.68878714
K_POINTS AUTOMATIC
 20 20 10 0 0 0 
