&CONTROL
    calculation = 'scf',
    restart_mode = 'from_scratch',
    pseudo_dir = '/home/markovsk/projects/pslib/espresso/fev',
    outdir = '/scratch/markovsk/fe3v',
    prefix = 'fe3v',
    tstress = .true.,
/

&SYSTEM
    ibrav = 2,
    ecutwfc = 30,
    ecutrho = 300,
    report = 1,
    occupations = 'smearing',
    smearing = 'marzari-vanderbilt',
    degauss = 0.015,
    nspin = 2,
    starting_magnetization(1) = 0.5,
    starting_magnetization(2) = 0.5,
    celldm(1) = 10.846,
    ntyp = 2,
    nat = 4,
/

&ELECTRONS
    conv_thr = 1.0e-10,
/

ATOMIC_SPECIES
 Fe  55.8470 Fe.pbe-sp-van_ak.UPF
 V   50.9415 V.pbe-sp-van.UPF

ATOMIC_POSITIONS (alat)
 Fe       0.00000000  0.00000000  0.00000000
 Fe       0.50000000  0.00000000  0.00000000
 Fe       0.25000000  0.25000000  0.25000000
 V        0.75000000  0.25000000  0.25000000

K_POINTS (automatic)
 8 16 16 0 0 0

