&CONTROL
    calculation = 'scf',
    restart_mode = 'from_scratch',
    pseudo_dir = '/home/user/pslib',
    outdir = 'temp/',
    prefix = 'al',
    tprnfor = .true.,
    tstress = .true.,
/
&SYSTEM
    ibrav = 2,
    ecutwfc = 17.5,
    occupations = 'smearing',
    smearing = 'marzari-vanderbilt',
    degauss = 0.05,
    celldm(1) = 7.7,
    celldm(2) = 1.0,
    celldm(3) = 1.0,
    celldm(4) = 0.0,
    ntyp = 1,
    nat = 1,
/
&ELECTRONS
    diagonalization = 'david',
    mixing_beta = 0.7,
/
ATOMIC_SPECIES
 Al  26.9800 Al.pz-vbc.UPF
ATOMIC_POSITIONS (alat)
 Al      0.00000000  0.00000000  0.00000000
K_POINTS
 60
 0.0625000  0.0625000  0.0625000   1.00
 0.0625000  0.0625000  0.1875000   3.00
 0.0625000  0.0625000  0.3125000   3.00
 0.0625000  0.0625000  0.4375000   3.00
 0.0625000  0.0625000  0.5625000   3.00
 0.0625000  0.0625000  0.6875000   3.00
 0.0625000  0.0625000  0.8125000   3.00
 0.0625000  0.0625000  0.9375000   3.00
 0.0625000  0.1875000  0.1875000   3.00
 0.0625000  0.1875000  0.3125000   6.00
 0.0625000  0.1875000  0.4375000   6.00
 0.0625000  0.1875000  0.5625000   6.00
 0.0625000  0.1875000  0.6875000   6.00
 0.0625000  0.1875000  0.8125000   6.00
 0.0625000  0.1875000  0.9375000   6.00
 0.0625000  0.3125000  0.3125000   3.00
 0.0625000  0.3125000  0.4375000   6.00
 0.0625000  0.3125000  0.5625000   6.00
 0.0625000  0.3125000  0.6875000   6.00
 0.0625000  0.3125000  0.8125000   6.00
 0.0625000  0.3125000  0.9375000   6.00
 0.0625000  0.4375000  0.4375000   3.00
 0.0625000  0.4375000  0.5625000   6.00
 0.0625000  0.4375000  0.6875000   6.00
 0.0625000  0.4375000  0.8125000   6.00
 0.0625000  0.4375000  0.9375000   6.00
 0.0625000  0.5625000  0.5625000   3.00
 0.0625000  0.5625000  0.6875000   6.00
 0.0625000  0.5625000  0.8125000   6.00
 0.0625000  0.6875000  0.6875000   3.00
 0.0625000  0.6875000  0.8125000   6.00
 0.0625000  0.8125000  0.8125000   3.00
 0.1875000  0.1875000  0.1875000   1.00
 0.1875000  0.1875000  0.3125000   3.00
 0.1875000  0.1875000  0.4375000   3.00
 0.1875000  0.1875000  0.5625000   3.00
 0.1875000  0.1875000  0.6875000   3.00
 0.1875000  0.1875000  0.8125000   3.00
 0.1875000  0.3125000  0.3125000   3.00
 0.1875000  0.3125000  0.4375000   6.00
 0.1875000  0.3125000  0.5625000   6.00
 0.1875000  0.3125000  0.6875000   6.00
 0.1875000  0.3125000  0.8125000   6.00
 0.1875000  0.4375000  0.4375000   3.00
 0.1875000  0.4375000  0.5625000   6.00
 0.1875000  0.4375000  0.6875000   6.00
 0.1875000  0.4375000  0.8125000   6.00
 0.1875000  0.5625000  0.5625000   3.00
 0.1875000  0.5625000  0.6875000   6.00
 0.1875000  0.6875000  0.6875000   3.00
 0.3125000  0.3125000  0.3125000   1.00
 0.3125000  0.3125000  0.4375000   3.00
 0.3125000  0.3125000  0.5625000   3.00
 0.3125000  0.3125000  0.6875000   3.00
 0.3125000  0.4375000  0.4375000   3.00
 0.3125000  0.4375000  0.5625000   6.00
 0.3125000  0.4375000  0.6875000   6.00
 0.3125000  0.5625000  0.5625000   3.00
 0.4375000  0.4375000  0.4375000   1.00
 0.4375000  0.4375000  0.5625000   3.00
