 &inputph
  tr2_ph=1.0d-12,
  reduce_io = .true.,
  amass(1)=24.305,
  amass(2)=11.000,
  prefix='mgb2',
  fildyn='mgb2.dyn',
  recover = .true.,
  trans=.true.,
  ldisp = .true.,
  nq1=6,
  nq2=6,
  nq3=6
 /

