&CONTROL
    calculation = 'scf',
    pseudo_dir = '/home/markovsk/projects/pslib/espresso/mgb2/',
    tprnfor = .true.,
    prefix = 'mgb2',
    outdir = '/scratch/markovsk/mgb2',
    tstress = .true.,
/

&SYSTEM
    nbnd = 12,
    nspin = 1,
    ecutwfc = 64,
    occupations = 'smearing',
    ibrav = 4,
    degauss = 0.025,
    smearing = 'methfessel-paxton',
    ecutrho = 256,
    la2f = .false.,
    celldm(1) = 5.78768372656,
    celldm(2) = 1.0,
    celldm(3) = 1.13623061711,
    celldm(4) = -0.5,
    ntyp = 2,
    nat = 3,
/

&ELECTRONS
    conv_thr = 1.0d-10,
/

ATOMIC_SPECIES
 Mg  24.3050 mg.ncpp
 B   11.0000 b_rc_1.4_pcc.ncpp

ATOMIC_POSITIONS (alat)
 Mg      0.00000000  0.00000000  0.00000000  
 B       0.50000000  0.28867513  0.56811531  
 B       0.00000000  0.57735027  0.56811531  

K_POINTS (automatic)
 32 32 32 0 0 0

