&input  fildyn='mgb2.dynG', asr='simple',
        q(1)=0.0, q(2)=0.0, q(3)=0.0 /