 &control
    calculation='vc-relax'
    restart_mode='from_scratch',
    etot_conv_thr = 1.0D-7 ,
    forc_conv_thr = 1.0D-6 ,
    tstress = .true. ,
    tprnfor = .true. ,
    prefix='mgb2',
    pseudo_dir = './',
    outdir='temp/'
 /
 &system    
     ibrav=4, 
     celldm(1) = 5.8300,
     celldm(2) = 5.8300,
     celldm(3) = 1.1420,
    nat=  3, 
    ntyp= 2,
    nspin=1,
!    nbnd = 12,
    occupations='smearing',
    degauss=0.020, 
    smearing = 'methfessel-paxton' ,    
    ecutwfc = 32.0,
    ecutrho = 256.0,
 /
 &electrons
    conv_thr =  1.0d-9
    mixing_beta = 0.7
 /
&IONS
!  bfgs_ndim         = 3,
!   upscale           = 100.D0,
   path_thr          = 0.00001,
!  opt_scheme        = 'broyden',
   ion_dynamics = 'bfgs',
   pot_extrapolation = 'second_order',
   wfc_extrapolation = 'second_order',
/
 &CELL
 cell_dynamics = 'bfgs'
 /
ATOMIC_SPECIES
 Mg  24.305 mg_6.ncpp
 B   11.000 B.pbe-n-van_ak.UPF 
ATOMIC_POSITIONS (alat)
Mg       0.000000000   0.0000000000000000   0.000000000  0 0 0
B        0.500000000   0.2886751345948129   0.571000000  0 0 1
B        0.000000000   0.5773502691896257   0.571000000  0 0 1

K_POINTS AUTOMATIC
24  24  24  0  0  0 
