Phonons of MgB2 at Gamma
 &inputph
  tr2_ph=1.0d-14,
  amass(1)=24.305,
  amass(2)=11.000,
  prefix='mgb2',
  !outdir='directory where large files are written/'
  outdir='temp/'
  fildyn='mgb2.dynG',
 /
 0.0 0.0 0.0
