&CONTROL
    calculation = 'scf',
    restart_mode = 'from_scratch',
    wf_collect = .true.,
    verbosity = 'high',
    prefix = 'mgb2',
    pseudo_dir = './',
    lkpoint_dir = .false.,
    outdir = 'temp/',
/

&SYSTEM
    ibrav = 4,
    nspin = 1,
    nbnd = 12,
    occupations = 'smearing',
    degauss = 0.020,
    smearing = 'methfessel-paxton',
    ecutwfc = 26,
    ecutrho = 136,
    la2f = .false.,
    celldm(1) = 5.7858,
    celldm(2) = 1.0,
    celldm(3) = 1.1356,
    celldm(4) = -0.5,
    ntyp = 2,
    nat = 3,
/

&ELECTRONS
    conv_thr = 1e-06,
    diago_full_acc = .TRUE.,
/

ATOMIC_SPECIES
  Mg  24.3050 mg_6.ncpp

  B   11.0000 B.pbe-n-van_ak.UPF


ATOMIC_POSITIONS (alat)
  Mg      0.00000000  0.00000000  0.00000000  

  B       0.50000000  0.28867510  0.56780000  

  B       0.00000000  0.57735030  0.56780000  


K_POINTS (automatic)
 12  12  12  0  0  0 


