&CONTROL
    calculation = 'nscf'
    !    wf_collect = .true.
    pseudo_dir = '/home/markovsk/projects/pslib/espresso/mgb2/'
    tprnfor = .true.
    prefix = 'mgb2'
    outdir = '/scratch/markovsk/mgb2'
    tstress = .true.
/
&SYSTEM
    nbnd = 12
    ecutwfc = 64
    celldm(4) = -0.5
    celldm(1) = 5.7878685054
    ibrav = 4
    celldm(3) = 1.13684331855
    smearing = 'methfessel-paxton'
    celldm(2) = 1.0
    nat = 3
    ecutrho = 256
    ntyp = 2
    la2f = .false.
/
&ELECTRONS
    conv_thr = 1.0d-12
/
ATOMIC_SPECIES
 Mg 24.305 mg.ncpp
 B 11.0 B.pbe-n-van_ak.UPF
ATOMIC_POSITIONS ALAT
 Mg     0.  0.  0.  
 B     0.5         0.28867513  0.56842166  
 B      3.34031958e-10   5.77350270e-01   5.68421659e-01  
K_POINTS
  4913
    0.000000    0.000000    0.000000  1.00
    0.000000    0.000000    0.054977  1.00
    0.000000    0.000000    0.109954  1.00
    0.000000    0.000000    0.164930  1.00
    0.000000    0.000000    0.219907  1.00
    0.000000    0.000000    0.274884  1.00
    0.000000    0.000000    0.329861  1.00
    0.000000    0.000000    0.384838  1.00
    0.000000    0.000000    0.439814  1.00
    0.000000    0.000000    0.494791  1.00
    0.000000    0.000000    0.549768  1.00
    0.000000    0.000000    0.604745  1.00
    0.000000    0.000000    0.659722  1.00
    0.000000    0.000000    0.714699  1.00
    0.000000    0.000000    0.769675  1.00
    0.000000    0.000000    0.824652  1.00
    0.000000    0.000000    0.879629  1.00
    0.000000    0.072169    0.000000  1.00
    0.000000    0.072169    0.054977  1.00
    0.000000    0.072169    0.109954  1.00
    0.000000    0.072169    0.164930  1.00
    0.000000    0.072169    0.219907  1.00
    0.000000    0.072169    0.274884  1.00
    0.000000    0.072169    0.329861  1.00
    0.000000    0.072169    0.384838  1.00
    0.000000    0.072169    0.439814  1.00
    0.000000    0.072169    0.494791  1.00
    0.000000    0.072169    0.549768  1.00
    0.000000    0.072169    0.604745  1.00
    0.000000    0.072169    0.659722  1.00
    0.000000    0.072169    0.714699  1.00
    0.000000    0.072169    0.769675  1.00
    0.000000    0.072169    0.824652  1.00
    0.000000    0.072169    0.879629  1.00
    0.000000    0.144338    0.000000  1.00
    0.000000    0.144338    0.054977  1.00
    0.000000    0.144338    0.109954  1.00
    0.000000    0.144338    0.164930  1.00
    0.000000    0.144338    0.219907  1.00
    0.000000    0.144338    0.274884  1.00
    0.000000    0.144338    0.329861  1.00
    0.000000    0.144338    0.384838  1.00
    0.000000    0.144338    0.439814  1.00
    0.000000    0.144338    0.494791  1.00
    0.000000    0.144338    0.549768  1.00
    0.000000    0.144338    0.604745  1.00
    0.000000    0.144338    0.659722  1.00
    0.000000    0.144338    0.714699  1.00
    0.000000    0.144338    0.769675  1.00
    0.000000    0.144338    0.824652  1.00
    0.000000    0.144338    0.879629  1.00
    0.000000    0.216506    0.000000  1.00
    0.000000    0.216506    0.054977  1.00
    0.000000    0.216506    0.109954  1.00
    0.000000    0.216506    0.164930  1.00
    0.000000    0.216506    0.219907  1.00
    0.000000    0.216506    0.274884  1.00
    0.000000    0.216506    0.329861  1.00
    0.000000    0.216506    0.384838  1.00
    0.000000    0.216506    0.439814  1.00
    0.000000    0.216506    0.494791  1.00
    0.000000    0.216506    0.549768  1.00
    0.000000    0.216506    0.604745  1.00
    0.000000    0.216506    0.659722  1.00
    0.000000    0.216506    0.714699  1.00
    0.000000    0.216506    0.769675  1.00
    0.000000    0.216506    0.824652  1.00
    0.000000    0.216506    0.879629  1.00
    0.000000    0.288675    0.000000  1.00
    0.000000    0.288675    0.054977  1.00
    0.000000    0.288675    0.109954  1.00
    0.000000    0.288675    0.164930  1.00
    0.000000    0.288675    0.219907  1.00
    0.000000    0.288675    0.274884  1.00
    0.000000    0.288675    0.329861  1.00
    0.000000    0.288675    0.384838  1.00
    0.000000    0.288675    0.439814  1.00
    0.000000    0.288675    0.494791  1.00
    0.000000    0.288675    0.549768  1.00
    0.000000    0.288675    0.604745  1.00
    0.000000    0.288675    0.659722  1.00
    0.000000    0.288675    0.714699  1.00
    0.000000    0.288675    0.769675  1.00
    0.000000    0.288675    0.824652  1.00
    0.000000    0.288675    0.879629  1.00
    0.000000    0.360844    0.000000  1.00
    0.000000    0.360844    0.054977  1.00
    0.000000    0.360844    0.109954  1.00
    0.000000    0.360844    0.164930  1.00
    0.000000    0.360844    0.219907  1.00
    0.000000    0.360844    0.274884  1.00
    0.000000    0.360844    0.329861  1.00
    0.000000    0.360844    0.384838  1.00
    0.000000    0.360844    0.439814  1.00
    0.000000    0.360844    0.494791  1.00
    0.000000    0.360844    0.549768  1.00
    0.000000    0.360844    0.604745  1.00
    0.000000    0.360844    0.659722  1.00
    0.000000    0.360844    0.714699  1.00
    0.000000    0.360844    0.769675  1.00
    0.000000    0.360844    0.824652  1.00
    0.000000    0.360844    0.879629  1.00
    0.000000    0.433013    0.000000  1.00
    0.000000    0.433013    0.054977  1.00
    0.000000    0.433013    0.109954  1.00
    0.000000    0.433013    0.164930  1.00
    0.000000    0.433013    0.219907  1.00
    0.000000    0.433013    0.274884  1.00
    0.000000    0.433013    0.329861  1.00
    0.000000    0.433013    0.384838  1.00
    0.000000    0.433013    0.439814  1.00
    0.000000    0.433013    0.494791  1.00
    0.000000    0.433013    0.549768  1.00
    0.000000    0.433013    0.604745  1.00
    0.000000    0.433013    0.659722  1.00
    0.000000    0.433013    0.714699  1.00
    0.000000    0.433013    0.769675  1.00
    0.000000    0.433013    0.824652  1.00
    0.000000    0.433013    0.879629  1.00
    0.000000    0.505182    0.000000  1.00
    0.000000    0.505182    0.054977  1.00
    0.000000    0.505182    0.109954  1.00
    0.000000    0.505182    0.164930  1.00
    0.000000    0.505182    0.219907  1.00
    0.000000    0.505182    0.274884  1.00
    0.000000    0.505182    0.329861  1.00
    0.000000    0.505182    0.384838  1.00
    0.000000    0.505182    0.439814  1.00
    0.000000    0.505182    0.494791  1.00
    0.000000    0.505182    0.549768  1.00
    0.000000    0.505182    0.604745  1.00
    0.000000    0.505182    0.659722  1.00
    0.000000    0.505182    0.714699  1.00
    0.000000    0.505182    0.769675  1.00
    0.000000    0.505182    0.824652  1.00
    0.000000    0.505182    0.879629  1.00
    0.000000    0.577350    0.000000  1.00
    0.000000    0.577350    0.054977  1.00
    0.000000    0.577350    0.109954  1.00
    0.000000    0.577350    0.164930  1.00
    0.000000    0.577350    0.219907  1.00
    0.000000    0.577350    0.274884  1.00
    0.000000    0.577350    0.329861  1.00
    0.000000    0.577350    0.384838  1.00
    0.000000    0.577350    0.439814  1.00
    0.000000    0.577350    0.494791  1.00
    0.000000    0.577350    0.549768  1.00
    0.000000    0.577350    0.604745  1.00
    0.000000    0.577350    0.659722  1.00
    0.000000    0.577350    0.714699  1.00
    0.000000    0.577350    0.769675  1.00
    0.000000    0.577350    0.824652  1.00
    0.000000    0.577350    0.879629  1.00
    0.000000    0.649519    0.000000  1.00
    0.000000    0.649519    0.054977  1.00
    0.000000    0.649519    0.109954  1.00
    0.000000    0.649519    0.164930  1.00
    0.000000    0.649519    0.219907  1.00
    0.000000    0.649519    0.274884  1.00
    0.000000    0.649519    0.329861  1.00
    0.000000    0.649519    0.384838  1.00
    0.000000    0.649519    0.439814  1.00
    0.000000    0.649519    0.494791  1.00
    0.000000    0.649519    0.549768  1.00
    0.000000    0.649519    0.604745  1.00
    0.000000    0.649519    0.659722  1.00
    0.000000    0.649519    0.714699  1.00
    0.000000    0.649519    0.769675  1.00
    0.000000    0.649519    0.824652  1.00
    0.000000    0.649519    0.879629  1.00
    0.000000    0.721688    0.000000  1.00
    0.000000    0.721688    0.054977  1.00
    0.000000    0.721688    0.109954  1.00
    0.000000    0.721688    0.164930  1.00
    0.000000    0.721688    0.219907  1.00
    0.000000    0.721688    0.274884  1.00
    0.000000    0.721688    0.329861  1.00
    0.000000    0.721688    0.384838  1.00
    0.000000    0.721688    0.439814  1.00
    0.000000    0.721688    0.494791  1.00
    0.000000    0.721688    0.549768  1.00
    0.000000    0.721688    0.604745  1.00
    0.000000    0.721688    0.659722  1.00
    0.000000    0.721688    0.714699  1.00
    0.000000    0.721688    0.769675  1.00
    0.000000    0.721688    0.824652  1.00
    0.000000    0.721688    0.879629  1.00
    0.000000    0.793857    0.000000  1.00
    0.000000    0.793857    0.054977  1.00
    0.000000    0.793857    0.109954  1.00
    0.000000    0.793857    0.164930  1.00
    0.000000    0.793857    0.219907  1.00
    0.000000    0.793857    0.274884  1.00
    0.000000    0.793857    0.329861  1.00
    0.000000    0.793857    0.384838  1.00
    0.000000    0.793857    0.439814  1.00
    0.000000    0.793857    0.494791  1.00
    0.000000    0.793857    0.549768  1.00
    0.000000    0.793857    0.604745  1.00
    0.000000    0.793857    0.659722  1.00
    0.000000    0.793857    0.714699  1.00
    0.000000    0.793857    0.769675  1.00
    0.000000    0.793857    0.824652  1.00
    0.000000    0.793857    0.879629  1.00
    0.000000    0.866026    0.000000  1.00
    0.000000    0.866026    0.054977  1.00
    0.000000    0.866026    0.109954  1.00
    0.000000    0.866026    0.164930  1.00
    0.000000    0.866026    0.219907  1.00
    0.000000    0.866026    0.274884  1.00
    0.000000    0.866026    0.329861  1.00
    0.000000    0.866026    0.384838  1.00
    0.000000    0.866026    0.439814  1.00
    0.000000    0.866026    0.494791  1.00
    0.000000    0.866026    0.549768  1.00
    0.000000    0.866026    0.604745  1.00
    0.000000    0.866026    0.659722  1.00
    0.000000    0.866026    0.714699  1.00
    0.000000    0.866026    0.769675  1.00
    0.000000    0.866026    0.824652  1.00
    0.000000    0.866026    0.879629  1.00
    0.000000    0.938195    0.000000  1.00
    0.000000    0.938195    0.054977  1.00
    0.000000    0.938195    0.109954  1.00
    0.000000    0.938195    0.164930  1.00
    0.000000    0.938195    0.219907  1.00
    0.000000    0.938195    0.274884  1.00
    0.000000    0.938195    0.329861  1.00
    0.000000    0.938195    0.384838  1.00
    0.000000    0.938195    0.439814  1.00
    0.000000    0.938195    0.494791  1.00
    0.000000    0.938195    0.549768  1.00
    0.000000    0.938195    0.604745  1.00
    0.000000    0.938195    0.659722  1.00
    0.000000    0.938195    0.714699  1.00
    0.000000    0.938195    0.769675  1.00
    0.000000    0.938195    0.824652  1.00
    0.000000    0.938195    0.879629  1.00
    0.000000    1.010363    0.000000  1.00
    0.000000    1.010363    0.054977  1.00
    0.000000    1.010363    0.109954  1.00
    0.000000    1.010363    0.164930  1.00
    0.000000    1.010363    0.219907  1.00
    0.000000    1.010363    0.274884  1.00
    0.000000    1.010363    0.329861  1.00
    0.000000    1.010363    0.384838  1.00
    0.000000    1.010363    0.439814  1.00
    0.000000    1.010363    0.494791  1.00
    0.000000    1.010363    0.549768  1.00
    0.000000    1.010363    0.604745  1.00
    0.000000    1.010363    0.659722  1.00
    0.000000    1.010363    0.714699  1.00
    0.000000    1.010363    0.769675  1.00
    0.000000    1.010363    0.824652  1.00
    0.000000    1.010363    0.879629  1.00
    0.000000    1.082532    0.000000  1.00
    0.000000    1.082532    0.054977  1.00
    0.000000    1.082532    0.109954  1.00
    0.000000    1.082532    0.164930  1.00
    0.000000    1.082532    0.219907  1.00
    0.000000    1.082532    0.274884  1.00
    0.000000    1.082532    0.329861  1.00
    0.000000    1.082532    0.384838  1.00
    0.000000    1.082532    0.439814  1.00
    0.000000    1.082532    0.494791  1.00
    0.000000    1.082532    0.549768  1.00
    0.000000    1.082532    0.604745  1.00
    0.000000    1.082532    0.659722  1.00
    0.000000    1.082532    0.714699  1.00
    0.000000    1.082532    0.769675  1.00
    0.000000    1.082532    0.824652  1.00
    0.000000    1.082532    0.879629  1.00
    0.000000    1.154701    0.000000  1.00
    0.000000    1.154701    0.054977  1.00
    0.000000    1.154701    0.109954  1.00
    0.000000    1.154701    0.164930  1.00
    0.000000    1.154701    0.219907  1.00
    0.000000    1.154701    0.274884  1.00
    0.000000    1.154701    0.329861  1.00
    0.000000    1.154701    0.384838  1.00
    0.000000    1.154701    0.439814  1.00
    0.000000    1.154701    0.494791  1.00
    0.000000    1.154701    0.549768  1.00
    0.000000    1.154701    0.604745  1.00
    0.000000    1.154701    0.659722  1.00
    0.000000    1.154701    0.714699  1.00
    0.000000    1.154701    0.769675  1.00
    0.000000    1.154701    0.824652  1.00
    0.000000    1.154701    0.879629  1.00
    0.062500    0.036084    0.000000  1.00
    0.062500    0.036084    0.054977  1.00
    0.062500    0.036084    0.109954  1.00
    0.062500    0.036084    0.164930  1.00
    0.062500    0.036084    0.219907  1.00
    0.062500    0.036084    0.274884  1.00
    0.062500    0.036084    0.329861  1.00
    0.062500    0.036084    0.384838  1.00
    0.062500    0.036084    0.439814  1.00
    0.062500    0.036084    0.494791  1.00
    0.062500    0.036084    0.549768  1.00
    0.062500    0.036084    0.604745  1.00
    0.062500    0.036084    0.659722  1.00
    0.062500    0.036084    0.714699  1.00
    0.062500    0.036084    0.769675  1.00
    0.062500    0.036084    0.824652  1.00
    0.062500    0.036084    0.879629  1.00
    0.062500    0.108253    0.000000  1.00
    0.062500    0.108253    0.054977  1.00
    0.062500    0.108253    0.109954  1.00
    0.062500    0.108253    0.164930  1.00
    0.062500    0.108253    0.219907  1.00
    0.062500    0.108253    0.274884  1.00
    0.062500    0.108253    0.329861  1.00
    0.062500    0.108253    0.384838  1.00
    0.062500    0.108253    0.439814  1.00
    0.062500    0.108253    0.494791  1.00
    0.062500    0.108253    0.549768  1.00
    0.062500    0.108253    0.604745  1.00
    0.062500    0.108253    0.659722  1.00
    0.062500    0.108253    0.714699  1.00
    0.062500    0.108253    0.769675  1.00
    0.062500    0.108253    0.824652  1.00
    0.062500    0.108253    0.879629  1.00
    0.062500    0.180422    0.000000  1.00
    0.062500    0.180422    0.054977  1.00
    0.062500    0.180422    0.109954  1.00
    0.062500    0.180422    0.164930  1.00
    0.062500    0.180422    0.219907  1.00
    0.062500    0.180422    0.274884  1.00
    0.062500    0.180422    0.329861  1.00
    0.062500    0.180422    0.384838  1.00
    0.062500    0.180422    0.439814  1.00
    0.062500    0.180422    0.494791  1.00
    0.062500    0.180422    0.549768  1.00
    0.062500    0.180422    0.604745  1.00
    0.062500    0.180422    0.659722  1.00
    0.062500    0.180422    0.714699  1.00
    0.062500    0.180422    0.769675  1.00
    0.062500    0.180422    0.824652  1.00
    0.062500    0.180422    0.879629  1.00
    0.062500    0.252591    0.000000  1.00
    0.062500    0.252591    0.054977  1.00
    0.062500    0.252591    0.109954  1.00
    0.062500    0.252591    0.164930  1.00
    0.062500    0.252591    0.219907  1.00
    0.062500    0.252591    0.274884  1.00
    0.062500    0.252591    0.329861  1.00
    0.062500    0.252591    0.384838  1.00
    0.062500    0.252591    0.439814  1.00
    0.062500    0.252591    0.494791  1.00
    0.062500    0.252591    0.549768  1.00
    0.062500    0.252591    0.604745  1.00
    0.062500    0.252591    0.659722  1.00
    0.062500    0.252591    0.714699  1.00
    0.062500    0.252591    0.769675  1.00
    0.062500    0.252591    0.824652  1.00
    0.062500    0.252591    0.879629  1.00
    0.062500    0.324760    0.000000  1.00
    0.062500    0.324760    0.054977  1.00
    0.062500    0.324760    0.109954  1.00
    0.062500    0.324760    0.164930  1.00
    0.062500    0.324760    0.219907  1.00
    0.062500    0.324760    0.274884  1.00
    0.062500    0.324760    0.329861  1.00
    0.062500    0.324760    0.384838  1.00
    0.062500    0.324760    0.439814  1.00
    0.062500    0.324760    0.494791  1.00
    0.062500    0.324760    0.549768  1.00
    0.062500    0.324760    0.604745  1.00
    0.062500    0.324760    0.659722  1.00
    0.062500    0.324760    0.714699  1.00
    0.062500    0.324760    0.769675  1.00
    0.062500    0.324760    0.824652  1.00
    0.062500    0.324760    0.879629  1.00
    0.062500    0.396928    0.000000  1.00
    0.062500    0.396928    0.054977  1.00
    0.062500    0.396928    0.109954  1.00
    0.062500    0.396928    0.164930  1.00
    0.062500    0.396928    0.219907  1.00
    0.062500    0.396928    0.274884  1.00
    0.062500    0.396928    0.329861  1.00
    0.062500    0.396928    0.384838  1.00
    0.062500    0.396928    0.439814  1.00
    0.062500    0.396928    0.494791  1.00
    0.062500    0.396928    0.549768  1.00
    0.062500    0.396928    0.604745  1.00
    0.062500    0.396928    0.659722  1.00
    0.062500    0.396928    0.714699  1.00
    0.062500    0.396928    0.769675  1.00
    0.062500    0.396928    0.824652  1.00
    0.062500    0.396928    0.879629  1.00
    0.062500    0.469097    0.000000  1.00
    0.062500    0.469097    0.054977  1.00
    0.062500    0.469097    0.109954  1.00
    0.062500    0.469097    0.164930  1.00
    0.062500    0.469097    0.219907  1.00
    0.062500    0.469097    0.274884  1.00
    0.062500    0.469097    0.329861  1.00
    0.062500    0.469097    0.384838  1.00
    0.062500    0.469097    0.439814  1.00
    0.062500    0.469097    0.494791  1.00
    0.062500    0.469097    0.549768  1.00
    0.062500    0.469097    0.604745  1.00
    0.062500    0.469097    0.659722  1.00
    0.062500    0.469097    0.714699  1.00
    0.062500    0.469097    0.769675  1.00
    0.062500    0.469097    0.824652  1.00
    0.062500    0.469097    0.879629  1.00
    0.062500    0.541266    0.000000  1.00
    0.062500    0.541266    0.054977  1.00
    0.062500    0.541266    0.109954  1.00
    0.062500    0.541266    0.164930  1.00
    0.062500    0.541266    0.219907  1.00
    0.062500    0.541266    0.274884  1.00
    0.062500    0.541266    0.329861  1.00
    0.062500    0.541266    0.384838  1.00
    0.062500    0.541266    0.439814  1.00
    0.062500    0.541266    0.494791  1.00
    0.062500    0.541266    0.549768  1.00
    0.062500    0.541266    0.604745  1.00
    0.062500    0.541266    0.659722  1.00
    0.062500    0.541266    0.714699  1.00
    0.062500    0.541266    0.769675  1.00
    0.062500    0.541266    0.824652  1.00
    0.062500    0.541266    0.879629  1.00
    0.062500    0.613435    0.000000  1.00
    0.062500    0.613435    0.054977  1.00
    0.062500    0.613435    0.109954  1.00
    0.062500    0.613435    0.164930  1.00
    0.062500    0.613435    0.219907  1.00
    0.062500    0.613435    0.274884  1.00
    0.062500    0.613435    0.329861  1.00
    0.062500    0.613435    0.384838  1.00
    0.062500    0.613435    0.439814  1.00
    0.062500    0.613435    0.494791  1.00
    0.062500    0.613435    0.549768  1.00
    0.062500    0.613435    0.604745  1.00
    0.062500    0.613435    0.659722  1.00
    0.062500    0.613435    0.714699  1.00
    0.062500    0.613435    0.769675  1.00
    0.062500    0.613435    0.824652  1.00
    0.062500    0.613435    0.879629  1.00
    0.062500    0.685604    0.000000  1.00
    0.062500    0.685604    0.054977  1.00
    0.062500    0.685604    0.109954  1.00
    0.062500    0.685604    0.164930  1.00
    0.062500    0.685604    0.219907  1.00
    0.062500    0.685604    0.274884  1.00
    0.062500    0.685604    0.329861  1.00
    0.062500    0.685604    0.384838  1.00
    0.062500    0.685604    0.439814  1.00
    0.062500    0.685604    0.494791  1.00
    0.062500    0.685604    0.549768  1.00
    0.062500    0.685604    0.604745  1.00
    0.062500    0.685604    0.659722  1.00
    0.062500    0.685604    0.714699  1.00
    0.062500    0.685604    0.769675  1.00
    0.062500    0.685604    0.824652  1.00
    0.062500    0.685604    0.879629  1.00
    0.062500    0.757772    0.000000  1.00
    0.062500    0.757772    0.054977  1.00
    0.062500    0.757772    0.109954  1.00
    0.062500    0.757772    0.164930  1.00
    0.062500    0.757772    0.219907  1.00
    0.062500    0.757772    0.274884  1.00
    0.062500    0.757772    0.329861  1.00
    0.062500    0.757772    0.384838  1.00
    0.062500    0.757772    0.439814  1.00
    0.062500    0.757772    0.494791  1.00
    0.062500    0.757772    0.549768  1.00
    0.062500    0.757772    0.604745  1.00
    0.062500    0.757772    0.659722  1.00
    0.062500    0.757772    0.714699  1.00
    0.062500    0.757772    0.769675  1.00
    0.062500    0.757772    0.824652  1.00
    0.062500    0.757772    0.879629  1.00
    0.062500    0.829941    0.000000  1.00
    0.062500    0.829941    0.054977  1.00
    0.062500    0.829941    0.109954  1.00
    0.062500    0.829941    0.164930  1.00
    0.062500    0.829941    0.219907  1.00
    0.062500    0.829941    0.274884  1.00
    0.062500    0.829941    0.329861  1.00
    0.062500    0.829941    0.384838  1.00
    0.062500    0.829941    0.439814  1.00
    0.062500    0.829941    0.494791  1.00
    0.062500    0.829941    0.549768  1.00
    0.062500    0.829941    0.604745  1.00
    0.062500    0.829941    0.659722  1.00
    0.062500    0.829941    0.714699  1.00
    0.062500    0.829941    0.769675  1.00
    0.062500    0.829941    0.824652  1.00
    0.062500    0.829941    0.879629  1.00
    0.062500    0.902110    0.000000  1.00
    0.062500    0.902110    0.054977  1.00
    0.062500    0.902110    0.109954  1.00
    0.062500    0.902110    0.164930  1.00
    0.062500    0.902110    0.219907  1.00
    0.062500    0.902110    0.274884  1.00
    0.062500    0.902110    0.329861  1.00
    0.062500    0.902110    0.384838  1.00
    0.062500    0.902110    0.439814  1.00
    0.062500    0.902110    0.494791  1.00
    0.062500    0.902110    0.549768  1.00
    0.062500    0.902110    0.604745  1.00
    0.062500    0.902110    0.659722  1.00
    0.062500    0.902110    0.714699  1.00
    0.062500    0.902110    0.769675  1.00
    0.062500    0.902110    0.824652  1.00
    0.062500    0.902110    0.879629  1.00
    0.062500    0.974279    0.000000  1.00
    0.062500    0.974279    0.054977  1.00
    0.062500    0.974279    0.109954  1.00
    0.062500    0.974279    0.164930  1.00
    0.062500    0.974279    0.219907  1.00
    0.062500    0.974279    0.274884  1.00
    0.062500    0.974279    0.329861  1.00
    0.062500    0.974279    0.384838  1.00
    0.062500    0.974279    0.439814  1.00
    0.062500    0.974279    0.494791  1.00
    0.062500    0.974279    0.549768  1.00
    0.062500    0.974279    0.604745  1.00
    0.062500    0.974279    0.659722  1.00
    0.062500    0.974279    0.714699  1.00
    0.062500    0.974279    0.769675  1.00
    0.062500    0.974279    0.824652  1.00
    0.062500    0.974279    0.879629  1.00
    0.062500    1.046448    0.000000  1.00
    0.062500    1.046448    0.054977  1.00
    0.062500    1.046448    0.109954  1.00
    0.062500    1.046448    0.164930  1.00
    0.062500    1.046448    0.219907  1.00
    0.062500    1.046448    0.274884  1.00
    0.062500    1.046448    0.329861  1.00
    0.062500    1.046448    0.384838  1.00
    0.062500    1.046448    0.439814  1.00
    0.062500    1.046448    0.494791  1.00
    0.062500    1.046448    0.549768  1.00
    0.062500    1.046448    0.604745  1.00
    0.062500    1.046448    0.659722  1.00
    0.062500    1.046448    0.714699  1.00
    0.062500    1.046448    0.769675  1.00
    0.062500    1.046448    0.824652  1.00
    0.062500    1.046448    0.879629  1.00
    0.062500    1.118617    0.000000  1.00
    0.062500    1.118617    0.054977  1.00
    0.062500    1.118617    0.109954  1.00
    0.062500    1.118617    0.164930  1.00
    0.062500    1.118617    0.219907  1.00
    0.062500    1.118617    0.274884  1.00
    0.062500    1.118617    0.329861  1.00
    0.062500    1.118617    0.384838  1.00
    0.062500    1.118617    0.439814  1.00
    0.062500    1.118617    0.494791  1.00
    0.062500    1.118617    0.549768  1.00
    0.062500    1.118617    0.604745  1.00
    0.062500    1.118617    0.659722  1.00
    0.062500    1.118617    0.714699  1.00
    0.062500    1.118617    0.769675  1.00
    0.062500    1.118617    0.824652  1.00
    0.062500    1.118617    0.879629  1.00
    0.062500    1.190785    0.000000  1.00
    0.062500    1.190785    0.054977  1.00
    0.062500    1.190785    0.109954  1.00
    0.062500    1.190785    0.164930  1.00
    0.062500    1.190785    0.219907  1.00
    0.062500    1.190785    0.274884  1.00
    0.062500    1.190785    0.329861  1.00
    0.062500    1.190785    0.384838  1.00
    0.062500    1.190785    0.439814  1.00
    0.062500    1.190785    0.494791  1.00
    0.062500    1.190785    0.549768  1.00
    0.062500    1.190785    0.604745  1.00
    0.062500    1.190785    0.659722  1.00
    0.062500    1.190785    0.714699  1.00
    0.062500    1.190785    0.769675  1.00
    0.062500    1.190785    0.824652  1.00
    0.062500    1.190785    0.879629  1.00
    0.125000    0.072169    0.000000  1.00
    0.125000    0.072169    0.054977  1.00
    0.125000    0.072169    0.109954  1.00
    0.125000    0.072169    0.164930  1.00
    0.125000    0.072169    0.219907  1.00
    0.125000    0.072169    0.274884  1.00
    0.125000    0.072169    0.329861  1.00
    0.125000    0.072169    0.384838  1.00
    0.125000    0.072169    0.439814  1.00
    0.125000    0.072169    0.494791  1.00
    0.125000    0.072169    0.549768  1.00
    0.125000    0.072169    0.604745  1.00
    0.125000    0.072169    0.659722  1.00
    0.125000    0.072169    0.714699  1.00
    0.125000    0.072169    0.769675  1.00
    0.125000    0.072169    0.824652  1.00
    0.125000    0.072169    0.879629  1.00
    0.125000    0.144338    0.000000  1.00
    0.125000    0.144338    0.054977  1.00
    0.125000    0.144338    0.109954  1.00
    0.125000    0.144338    0.164930  1.00
    0.125000    0.144338    0.219907  1.00
    0.125000    0.144338    0.274884  1.00
    0.125000    0.144338    0.329861  1.00
    0.125000    0.144338    0.384838  1.00
    0.125000    0.144338    0.439814  1.00
    0.125000    0.144338    0.494791  1.00
    0.125000    0.144338    0.549768  1.00
    0.125000    0.144338    0.604745  1.00
    0.125000    0.144338    0.659722  1.00
    0.125000    0.144338    0.714699  1.00
    0.125000    0.144338    0.769675  1.00
    0.125000    0.144338    0.824652  1.00
    0.125000    0.144338    0.879629  1.00
    0.125000    0.216506    0.000000  1.00
    0.125000    0.216506    0.054977  1.00
    0.125000    0.216506    0.109954  1.00
    0.125000    0.216506    0.164930  1.00
    0.125000    0.216506    0.219907  1.00
    0.125000    0.216506    0.274884  1.00
    0.125000    0.216506    0.329861  1.00
    0.125000    0.216506    0.384838  1.00
    0.125000    0.216506    0.439814  1.00
    0.125000    0.216506    0.494791  1.00
    0.125000    0.216506    0.549768  1.00
    0.125000    0.216506    0.604745  1.00
    0.125000    0.216506    0.659722  1.00
    0.125000    0.216506    0.714699  1.00
    0.125000    0.216506    0.769675  1.00
    0.125000    0.216506    0.824652  1.00
    0.125000    0.216506    0.879629  1.00
    0.125000    0.288675    0.000000  1.00
    0.125000    0.288675    0.054977  1.00
    0.125000    0.288675    0.109954  1.00
    0.125000    0.288675    0.164930  1.00
    0.125000    0.288675    0.219907  1.00
    0.125000    0.288675    0.274884  1.00
    0.125000    0.288675    0.329861  1.00
    0.125000    0.288675    0.384838  1.00
    0.125000    0.288675    0.439814  1.00
    0.125000    0.288675    0.494791  1.00
    0.125000    0.288675    0.549768  1.00
    0.125000    0.288675    0.604745  1.00
    0.125000    0.288675    0.659722  1.00
    0.125000    0.288675    0.714699  1.00
    0.125000    0.288675    0.769675  1.00
    0.125000    0.288675    0.824652  1.00
    0.125000    0.288675    0.879629  1.00
    0.125000    0.360844    0.000000  1.00
    0.125000    0.360844    0.054977  1.00
    0.125000    0.360844    0.109954  1.00
    0.125000    0.360844    0.164930  1.00
    0.125000    0.360844    0.219907  1.00
    0.125000    0.360844    0.274884  1.00
    0.125000    0.360844    0.329861  1.00
    0.125000    0.360844    0.384838  1.00
    0.125000    0.360844    0.439814  1.00
    0.125000    0.360844    0.494791  1.00
    0.125000    0.360844    0.549768  1.00
    0.125000    0.360844    0.604745  1.00
    0.125000    0.360844    0.659722  1.00
    0.125000    0.360844    0.714699  1.00
    0.125000    0.360844    0.769675  1.00
    0.125000    0.360844    0.824652  1.00
    0.125000    0.360844    0.879629  1.00
    0.125000    0.433013    0.000000  1.00
    0.125000    0.433013    0.054977  1.00
    0.125000    0.433013    0.109954  1.00
    0.125000    0.433013    0.164930  1.00
    0.125000    0.433013    0.219907  1.00
    0.125000    0.433013    0.274884  1.00
    0.125000    0.433013    0.329861  1.00
    0.125000    0.433013    0.384838  1.00
    0.125000    0.433013    0.439814  1.00
    0.125000    0.433013    0.494791  1.00
    0.125000    0.433013    0.549768  1.00
    0.125000    0.433013    0.604745  1.00
    0.125000    0.433013    0.659722  1.00
    0.125000    0.433013    0.714699  1.00
    0.125000    0.433013    0.769675  1.00
    0.125000    0.433013    0.824652  1.00
    0.125000    0.433013    0.879629  1.00