&SYSTEM
    ibrav = 8,
    celldm(1) = 3,
    celldm(2) = 1,
    celldm(3) = 1,
    celldm(4) = 0.0,
    ntyp = 2,
    nat = 3,
/
ATOMIC_SPECIES
 Mg  24.3050 mg_6.ncpp
 B   11.0000 B.pbe-n-van_ak.UPF
ATOMIC_POSITIONS (alat)
 Mg      0.00000000  0.00000000  0.00000000  
 B       0.66666667  0.44444444  0.83333333  
 B       0.33333333  0.88888889  0.83333333  
