&SYSTEM
    ibrav = 8,
    celldm(1) = 3,
    celldm(2) = 1,
    celldm(3) = 1,
    celldm(4) = 0.0,
    ntyp = 2,
    nat = 3,
/

ATOMIC_POSITIONS (alat)
 Mg      0.00000000  0.00000000  0.00000000  
 B       2.00000000  1.33333333  2.50000000  
 B       1.00000000  2.66666667  2.50000000  

ATOMIC_SPECIES
 Mg  24.3050 mg_6.ncpp
 B   11.0000 B.pbe-n-van_ak.UPF

